Gurobi Optimizer version 9.1.0 build v9.1.0rc0 (linux64)
Thread count: 8 physical cores, 16 logical processors, using up to 16 threads
Optimize a model with 17696 rows, 16320 columns and 92780 nonzeros
Model fingerprint: 0x3ebdb591
Variable types: 0 continuous, 16320 integer (16320 binary)
Coefficient statistics:
  Matrix range     [1e+00, 1e+00]
  Objective range  [1e+01, 1e+04]
  Bounds range     [1e+00, 1e+00]
  RHS range        [1e+00, 1e+02]
Presolve removed 20 rows and 20 columns
Presolve time: 0.21s
Presolved: 17676 rows, 16300 columns, 92740 nonzeros
Variable types: 0 continuous, 16300 integer (16300 binary)
Found heuristic solution: objective 141251.00000

Concurrent LP optimizer: primal simplex, dual simplex, and barrier
Showing barrier log only...

Root barrier log...

Ordering time: 0.04s

Barrier statistics:
 Dense cols : 160
 AA' NZ     : 8.094e+04
 Factor NZ  : 3.691e+05 (roughly 17 MBytes of memory)
 Factor Ops : 1.799e+07 (less than 1 second per iteration)
 Threads    : 6

                  Objective                Residual
Iter       Primal          Dual         Primal    Dual     Compl     Time
   0   5.07032351e+06 -5.78746920e+04  4.15e+01 0.00e+00  5.64e+02     0s
   1   2.32404780e+05 -1.42162758e+06  7.30e-01 1.01e+03  4.38e+01     0s
   2   1.64008040e+05 -4.05689309e+05  1.14e-01 2.22e+03  1.28e+01     1s
   3   1.58179840e+05 -2.15514796e+05  7.09e-02 2.26e+03  8.68e+00     1s
   4   1.53590908e+05  6.94224536e+04  4.37e-02 3.59e+02  1.79e+00     1s
   5   1.37686059e+05  1.13559078e+05  2.25e-03 1.24e+02  5.15e-01     1s
   6   1.33814646e+05  1.21086616e+05  1.36e-03 5.30e+01  2.67e-01     1s
   7   1.30609155e+05  1.23885226e+05  7.17e-04 2.66e+01  1.41e-01     1s
   8   1.29421355e+05  1.24678945e+05  5.01e-04 1.84e+01  9.91e-02     1s
   9   1.28442879e+05  1.25265871e+05  3.31e-04 1.22e+01  6.63e-02     1s
  10   1.27911163e+05  1.25525469e+05  2.39e-04 9.61e+00  5.00e-02     1s
  11   1.27688470e+05  1.25881441e+05  2.01e-04 6.05e+00  3.74e-02     1s
  12   1.27333637e+05  1.26048057e+05  1.45e-04 4.25e+00  2.66e-02     1s
  13   1.27109139e+05  1.26142259e+05  1.10e-04 3.17e+00  2.00e-02     1s
  14   1.26935545e+05  1.26209922e+05  8.23e-05 2.41e+00  1.50e-02     1s
  15   1.26785808e+05  1.26264163e+05  5.80e-05 1.82e+00  1.08e-02     1s
  16   1.26744304e+05  1.26297304e+05  5.10e-05 1.46e+00  9.25e-03     1s
  17   1.26667244e+05  1.26319919e+05  3.81e-05 1.21e+00  7.21e-03     1s
  18   1.26607893e+05  1.26353712e+05  2.86e-05 8.11e-01  5.25e-03     1s
  19   1.26556643e+05  1.26373691e+05  1.99e-05 5.88e-01  3.78e-03     1s
  20   1.26513931e+05  1.26386595e+05  1.32e-05 4.48e-01  2.64e-03     1s
  21   1.26491593e+05  1.26399094e+05  9.62e-06 3.16e-01  1.92e-03     1s
  22   1.26487225e+05  1.26405214e+05  8.97e-06 2.52e-01  1.69e-03     1s
  23   1.26483376e+05  1.26405623e+05  8.40e-06 2.47e-01  1.61e-03     1s
  24   1.26475671e+05  1.26409250e+05  7.21e-06 2.05e-01  1.37e-03     1s
  25   1.26466950e+05  1.26411462e+05  5.86e-06 1.76e-01  1.15e-03     1s
  26   1.26460674e+05  1.26413972e+05  4.93e-06 1.48e-01  9.65e-04     1s
  27   1.26456092e+05  1.26416810e+05  4.27e-06 1.14e-01  8.09e-04     1s
  28   1.26449353e+05  1.26418262e+05  3.24e-06 9.78e-02  6.42e-04     1s
  29   1.26442982e+05  1.26421700e+05  2.31e-06 5.96e-02  4.37e-04     1s
  30   1.26437210e+05  1.26424223e+05  1.42e-06 3.34e-02  2.66e-04     1s
  31   1.26433857e+05  1.26425346e+05  9.18e-07 2.22e-02  1.75e-04     1s
  32   1.26432892e+05  1.26425889e+05  7.73e-07 1.72e-02  1.43e-04     1s
  33   1.26431776e+05  1.26426678e+05  6.04e-07 9.23e-03  1.03e-04     1s
  34   1.26431173e+05  1.26427021e+05  5.14e-07 5.83e-03  8.36e-05     1s
  35   1.26427977e+05  1.26427463e+05  4.14e-08 1.28e-03  1.05e-05     1s
  36   1.26427659e+05  1.26427648e+05  9.09e-10 4.27e-06  2.35e-07     1s
  37   1.26427650e+05  1.26427650e+05  7.32e-10 8.58e-09  3.78e-10     1s

Barrier solved model in 37 iterations and 1.25 seconds
Optimal objective 1.26427650e+05


Solved with barrier

Root relaxation: objective 1.264276e+05, 1195 iterations, 1.02 seconds

    Nodes    |    Current Node    |     Objective Bounds      |     Work
 Expl Unexpl |  Obj  Depth IntInf | Incumbent    BestBd   Gap | It/Node Time

     0     0 126427.650    0 1135 141251.000 126427.650  10.5%     -    1s
H    0     0                    127946.00000 126427.650  1.19%     -    2s
H    0     0                    126549.00000 126427.650  0.10%     -    2s
H    0     0                    126497.00000 126427.650  0.05%     -    2s
     0     0 126451.500    0 1122 126497.000 126451.500  0.04%     -    3s
     0     0 126451.500    0 1069 126497.000 126451.500  0.04%     -    4s
H    0     0                    126472.00000 126451.500  0.02%     -    5s
     0     0 126472.000    0 1055 126472.000 126472.000  0.00%     -    5s

Cutting planes:
  Zero half: 31

Explored 1 nodes (4026 simplex iterations) in 5.65 seconds
Thread count was 16 (of 16 available processors)

Solution count 6: 126472 126497 126497 ... 141251

Optimal solution found (tolerance 1.00e-04)
Best objective 1.264720000000e+05, best bound 1.264720000000e+05, gap 0.0000%

User-callback calls 1496, time in user-callback 0.02 sec
['/opt/local/stow/gurobi910/linux64/lib/libgurobi91.so']
Optimal Result: runtime=5.65sec; objective=126472; gap=0.0000%
Solution written to /autofs/unityaccount/cremi/mdeboute/Bureau/multi-period-flp/solution//instMulti_I20_J100_T8_0_result.txt
